70
2 115 95 
2 68 56 
1 101 
2 70 25 
2 104 63 
2 33 18 
2 5 4 
2 74 53 
1 66 
1 51 
2 6 93 
2 90 116 
1 17 
1 21 
2 78 8 
1 54 
2 72 38 
2 92 98 
2 106 43 
2 16 14 
2 84 55 
1 113 
2 49 19 
2 23 27 
1 79 
2 82 26 
1 45 
1 110 
2 80 32 
2 12 105 
1 96 
2 86 30 
3 108 36 109 
2 62 2 
2 83 40 
2 31 102 
1 97 
1 77 
2 94 89 
2 24 87 
1 112 
2 111 67 
2 62 2 
3 65 100 34 
1 9 
2 44 42 
3 118 76 120 
1 91 
1 119 
2 117 10 
1 1 
2 71 3 
2 85 41 
2 21 20 
2 22 81 
1 15 
1 48 
4 73 99 60 59 
1 51 
3 11 52 107 
1 103 
2 46 75 
1 50 
1 37 
3 39 35 58 
2 13 64 
1 47 
2 114 28 
1 88 
1 61 
